nK = 1817;
nT = 8;
nI = 21;
L = 29;
TT = 449;
np = 1;
nc = 3;
b = [62, 34, 59, 54, 43, 32, 31, 57, 53, 23, 32, 31, 30, 36, 66, 29, 40, 52, 40, 45, 55];
d = [126, 130, 119, 118, 66, 76, 84, 142, 142, 118, 148, 144, 124, 107, 118, 46, 61, 100, 100, 72, 128];
m = [1.1, 2.1, 1.7, 2, 2.1, 1, 1.5, 2.2, 2.3, 1.3, 2.5, 2.5, 1, 1.9, 1.3, 1.1, 1, 1.6, 2.2, 1.6, 2.4];
pt = [0.29, 0.3, 0.32, 0.27, 0.31, 0.3, 0.28, 0.24];
st = [11.89, 12.6, 17.6, 11.61, 18.29, 17.4, 16.52, 12.96];
arc = {<1, 0, 1, 1, 0, 0, 0, [1, 1, 1, 1, 1, 1, 1, 1]>, <2, 1, 2, 1, 0, 0, 0, [1, 1, 1, 1, 1, 1, 1, 1]>, <3, 2, 3, 1, 0, 0, 0, [1, 1, 1, 1, 1, 1, 1, 1]>, <4, 3, 4, 1, 0, 0, 0, [1, 1, 1, 1, 1, 1, 1, 1]>, <5, 4, 5, 1, 0, 0, 0, [1, 1, 1, 1, 1, 1, 1, 1]>, <6, 5, 6, 1, 0, 0, 0, [1, 1, 1, 1, 1, 1, 1, 1]>, <7, 6, 7, 1, 0, 0, 0, [1, 1, 1, 1, 1, 1, 1, 1]>, <8, 7, 8, 1, 0, 0, 0, [1, 1, 1, 1, 1, 1, 1, 1]>, <9, 8, 9, 1, 0, 0, 0, [1, 1, 1, 1, 1, 1, 1, 1]>, <10, 9, 10, 1, 0, 0, 0, [1, 1, 1, 1, 1, 1, 1, 1]>, <11, 10, 11, 1, 0, 0, 0, [1, 1, 1, 1, 1, 1, 1, 1]>, <12, 11, 12, 1, 0, 0, 0, [1, 1, 1, 1, 1, 1, 1, 1]>, <13, 12, 13, 1, 0, 0, 0, [1, 1, 1, 1, 1, 1, 1, 1]>, <14, 13, 14, 1, 0, 0, 0, [1, 1, 1, 1, 1, 1, 1, 1]>, <15, 14, 15, 1, 0, 0, 0, [1, 1, 1, 1, 1, 1, 1, 1]>, <16, 15, 16, 1, 0, 0, 0, [1, 1, 1, 1, 1, 1, 1, 1]>, <17, 16, 17, 1, 0, 0, 0, [1, 1, 1, 1, 1, 1, 1, 1]>, <18, 17, 18, 1, 0, 0, 0, [1, 1, 1, 1, 1, 1, 1, 1]>, <19, 18, 19, 1, 0, 0, 0, [1, 1, 1, 1, 1, 1, 1, 1]>, <20, 19, 20, 1, 0, 0, 0, [1, 1, 1, 1, 1, 1, 1, 1]>, <21, 20, 21, 1, 0, 0, 0, [1, 1, 1, 1, 1, 1, 1, 1]>, <22, 21, 22, 1, 0, 0, 0, [1, 1, 1, 1, 1, 1, 1, 1]>, <23, 22, 23, 1, 0, 0, 0, [1, 1, 1, 1, 1, 1, 1, 1]>, <24, 23, 24, 1, 0, 0, 0, [1, 1, 1, 1, 1, 1, 1, 1]>, <25, 24, 25, 1, 0, 0, 0, [1, 1, 1, 1, 1, 1, 1, 1]>, <26, 25, 26, 1, 0, 0, 0, [1, 1, 1, 1, 1, 1, 1, 1]>, <27, 26, 27, 1, 0, 0, 0, [1, 1, 1, 1, 1, 1, 1, 1]>, <28, 27, 28, 1, 0, 0, 0, [1, 1, 1, 1, 1, 1, 1, 1]>, <29, 28, 29, 1, 0, 0, 0, [1, 1, 1, 1, 1, 1, 1, 1]>, <30, 1, 12, 11, 1, 0, 0, [0, 0, 0, 0, 0, 0, 1, 1]>, <31, 2, 13, 11, 1, 0, 0, [0, 0, 0, 0, 0, 0, 1, 1]>, <32, 3, 14, 11, 1, 0, 0, [0, 0, 0, 0, 0, 0, 1, 1]>, <33, 4, 15, 11, 1, 0, 0, [0, 0, 0, 0, 0, 0, 1, 1]>, <34, 5, 16, 11, 1, 0, 0, [0, 0, 0, 0, 0, 0, 1, 1]>, <35, 9, 20, 11, 1, 0, 0, [0, 0, 0, 0, 0, 0, 1, 1]>, <36, 10, 21, 11, 1, 0, 0, [0, 0, 0, 0, 0, 0, 1, 1]>, <37, 11, 22, 11, 1, 0, 0, [0, 0, 0, 0, 0, 0, 1, 1]>, <38, 12, 23, 11, 1, 0, 0, [0, 0, 0, 0, 0, 0, 1, 1]>, <39, 13, 24, 11, 1, 0, 0, [0, 0, 0, 0, 0, 0, 1, 1]>, <40, 14, 25, 11, 1, 0, 0, [0, 0, 0, 0, 0, 0, 1, 1]>, <41, 15, 26, 11, 1, 0, 0, [0, 0, 0, 0, 0, 0, 1, 1]>, <42, 16, 27, 11, 1, 0, 0, [0, 0, 0, 0, 0, 0, 1, 1]>, <43, 17, 28, 11, 1, 0, 0, [0, 0, 0, 0, 0, 0, 1, 1]>, <44, 18, 29, 11, 1, 0, 0, [0, 0, 0, 0, 0, 0, 1, 1]>, <45, 0, 12, 12, 2, 0, 0, [0, 0, 0, 1, 1, 0, 0, 0]>, <46, 1, 13, 12, 2, 0, 0, [0, 0, 0, 1, 1, 0, 0, 0]>, <47, 2, 14, 12, 2, 0, 0, [0, 0, 0, 1, 1, 0, 0, 0]>, <48, 3, 15, 12, 2, 0, 0, [0, 0, 0, 1, 1, 0, 0, 0]>, <49, 4, 16, 12, 2, 0, 0, [0, 0, 0, 1, 1, 0, 0, 0]>, <50, 5, 17, 12, 2, 0, 0, [0, 0, 0, 1, 1, 0, 0, 0]>, <51, 8, 20, 12, 2, 0, 0, [0, 0, 0, 1, 1, 0, 0, 0]>, <52, 9, 21, 12, 2, 0, 0, [0, 0, 0, 1, 1, 0, 0, 0]>, <53, 10, 22, 12, 2, 0, 0, [0, 0, 0, 1, 1, 0, 0, 0]>, <54, 11, 23, 12, 2, 0, 0, [0, 0, 0, 1, 1, 0, 0, 0]>, <55, 12, 24, 12, 2, 0, 0, [0, 0, 0, 1, 1, 0, 0, 0]>, <56, 13, 25, 12, 2, 0, 0, [0, 0, 0, 1, 1, 0, 0, 0]>, <57, 14, 26, 12, 2, 0, 0, [0, 0, 0, 1, 1, 0, 0, 0]>, <58, 15, 27, 12, 2, 0, 0, [0, 0, 0, 1, 1, 0, 0, 0]>, <59, 16, 28, 12, 2, 0, 0, [0, 0, 0, 1, 1, 0, 0, 0]>, <60, 17, 29, 12, 2, 0, 0, [0, 0, 0, 1, 1, 0, 0, 0]>, <61, 0, 13, 13, 3, 0, 0, [0, 0, 0, 0, 0, 0, 1, 1]>, <62, 1, 14, 13, 3, 0, 0, [0, 0, 0, 0, 0, 0, 1, 1]>, <63, 2, 15, 13, 3, 0, 0, [0, 0, 0, 0, 0, 0, 1, 1]>, <64, 3, 16, 13, 3, 0, 0, [0, 0, 0, 0, 0, 0, 1, 1]>, <65, 4, 17, 13, 3, 0, 0, [0, 0, 0, 0, 0, 0, 1, 1]>, <66, 5, 18, 13, 3, 0, 0, [0, 0, 0, 0, 0, 0, 1, 1]>, <67, 7, 20, 13, 3, 0, 0, [0, 0, 0, 0, 0, 0, 1, 1]>, <68, 8, 21, 13, 3, 0, 0, [0, 0, 0, 0, 0, 0, 1, 1]>, <69, 9, 22, 13, 3, 0, 0, [0, 0, 0, 0, 0, 0, 1, 1]>, <70, 10, 23, 13, 3, 0, 0, [0, 0, 0, 0, 0, 0, 1, 1]>, <71, 11, 24, 13, 3, 0, 0, [0, 0, 0, 0, 0, 0, 1, 1]>, <72, 12, 25, 13, 3, 0, 0, [0, 0, 0, 0, 0, 0, 1, 1]>, <73, 13, 26, 13, 3, 0, 0, [0, 0, 0, 0, 0, 0, 1, 1]>, <74, 14, 27, 13, 3, 0, 0, [0, 0, 0, 0, 0, 0, 1, 1]>, <75, 15, 28, 13, 3, 0, 0, [0, 0, 0, 0, 0, 0, 1, 1]>, <76, 16, 29, 13, 3, 0, 0, [0, 0, 0, 0, 0, 0, 1, 1]>, <77, 1, 12, 11, 4, 0, 0, [1, 1, 0, 0, 0, 0, 0, 0]>, <78, 2, 13, 11, 4, 0, 0, [1, 1, 0, 0, 0, 0, 0, 0]>, <79, 3, 14, 11, 4, 0, 0, [1, 1, 0, 0, 0, 0, 0, 0]>, <80, 4, 15, 11, 4, 0, 0, [1, 1, 0, 0, 0, 0, 0, 0]>, <81, 5, 16, 11, 4, 0, 0, [1, 1, 0, 0, 0, 0, 0, 0]>, <82, 9, 20, 11, 4, 0, 0, [1, 1, 0, 0, 0, 0, 0, 0]>, <83, 10, 21, 11, 4, 0, 0, [1, 1, 0, 0, 0, 0, 0, 0]>, <84, 11, 22, 11, 4, 0, 0, [1, 1, 0, 0, 0, 0, 0, 0]>, <85, 12, 23, 11, 4, 0, 0, [1, 1, 0, 0, 0, 0, 0, 0]>, <86, 13, 24, 11, 4, 0, 0, [1, 1, 0, 0, 0, 0, 0, 0]>, <87, 14, 25, 11, 4, 0, 0, [1, 1, 0, 0, 0, 0, 0, 0]>, <88, 15, 26, 11, 4, 0, 0, [1, 1, 0, 0, 0, 0, 0, 0]>, <89, 16, 27, 11, 4, 0, 0, [1, 1, 0, 0, 0, 0, 0, 0]>, <90, 17, 28, 11, 4, 0, 0, [1, 1, 0, 0, 0, 0, 0, 0]>, <91, 18, 29, 11, 4, 0, 0, [1, 1, 0, 0, 0, 0, 0, 0]>, <92, 0, 12, 12, 5, 0, 1, [0, 0, 0, 0, 0, 1, 1, 0]>, <93, 1, 13, 12, 5, 0, 1, [0, 0, 0, 0, 0, 1, 1, 0]>, <94, 2, 14, 12, 5, 0, 1, [0, 0, 0, 0, 0, 1, 1, 0]>, <95, 3, 15, 12, 5, 0, 1, [0, 0, 0, 0, 0, 1, 1, 0]>, <96, 4, 16, 12, 5, 0, 1, [0, 0, 0, 0, 0, 1, 1, 0]>, <97, 5, 17, 12, 5, 0, 1, [0, 0, 0, 0, 0, 1, 1, 0]>, <98, 8, 20, 12, 5, 0, 1, [0, 0, 0, 0, 0, 1, 1, 0]>, <99, 9, 21, 12, 5, 0, 1, [0, 0, 0, 0, 0, 1, 1, 0]>, <100, 10, 22, 12, 5, 0, 1, [0, 0, 0, 0, 0, 1, 1, 0]>, <101, 11, 23, 12, 5, 0, 1, [0, 0, 0, 0, 0, 1, 1, 0]>, <102, 12, 24, 12, 5, 0, 1, [0, 0, 0, 0, 0, 1, 1, 0]>, <103, 13, 25, 12, 5, 0, 1, [0, 0, 0, 0, 0, 1, 1, 0]>, <104, 14, 26, 12, 5, 0, 1, [0, 0, 0, 0, 0, 1, 1, 0]>, <105, 15, 27, 12, 5, 0, 1, [0, 0, 0, 0, 0, 1, 1, 0]>, <106, 16, 28, 12, 5, 0, 1, [0, 0, 0, 0, 0, 1, 1, 0]>, <107, 17, 29, 12, 5, 0, 1, [0, 0, 0, 0, 0, 1, 1, 0]>, <108, 0, 13, 13, 6, 1, 0, [0, 0, 0, 1, 1, 0, 0, 0]>, <109, 1, 14, 13, 6, 1, 0, [0, 0, 0, 1, 1, 0, 0, 0]>, <110, 2, 15, 13, 6, 1, 0, [0, 0, 0, 1, 1, 0, 0, 0]>, <111, 3, 16, 13, 6, 1, 0, [0, 0, 0, 1, 1, 0, 0, 0]>, <112, 4, 17, 13, 6, 1, 0, [0, 0, 0, 1, 1, 0, 0, 0]>, <113, 5, 18, 13, 6, 1, 0, [0, 0, 0, 1, 1, 0, 0, 0]>, <114, 7, 20, 13, 6, 1, 0, [0, 0, 0, 1, 1, 0, 0, 0]>, <115, 8, 21, 13, 6, 1, 0, [0, 0, 0, 1, 1, 0, 0, 0]>, <116, 9, 22, 13, 6, 1, 0, [0, 0, 0, 1, 1, 0, 0, 0]>, <117, 10, 23, 13, 6, 1, 0, [0, 0, 0, 1, 1, 0, 0, 0]>, <118, 11, 24, 13, 6, 1, 0, [0, 0, 0, 1, 1, 0, 0, 0]>, <119, 12, 25, 13, 6, 1, 0, [0, 0, 0, 1, 1, 0, 0, 0]>, <120, 13, 26, 13, 6, 1, 0, [0, 0, 0, 1, 1, 0, 0, 0]>, <121, 14, 27, 13, 6, 1, 0, [0, 0, 0, 1, 1, 0, 0, 0]>, <122, 15, 28, 13, 6, 1, 0, [0, 0, 0, 1, 1, 0, 0, 0]>, <123, 16, 29, 13, 6, 1, 0, [0, 0, 0, 1, 1, 0, 0, 0]>, <124, 0, 14, 14, 7, 0, 1, [0, 0, 0, 0, 1, 1, 0, 0]>, <125, 1, 15, 14, 7, 0, 1, [0, 0, 0, 0, 1, 1, 0, 0]>, <126, 2, 16, 14, 7, 0, 1, [0, 0, 0, 0, 1, 1, 0, 0]>, <127, 3, 17, 14, 7, 0, 1, [0, 0, 0, 0, 1, 1, 0, 0]>, <128, 4, 18, 14, 7, 0, 1, [0, 0, 0, 0, 1, 1, 0, 0]>, <129, 5, 19, 14, 7, 0, 1, [0, 0, 0, 0, 1, 1, 0, 0]>, <130, 6, 20, 14, 7, 0, 1, [0, 0, 0, 0, 1, 1, 0, 0]>, <131, 7, 21, 14, 7, 0, 1, [0, 0, 0, 0, 1, 1, 0, 0]>, <132, 8, 22, 14, 7, 0, 1, [0, 0, 0, 0, 1, 1, 0, 0]>, <133, 9, 23, 14, 7, 0, 1, [0, 0, 0, 0, 1, 1, 0, 0]>, <134, 10, 24, 14, 7, 0, 1, [0, 0, 0, 0, 1, 1, 0, 0]>, <135, 11, 25, 14, 7, 0, 1, [0, 0, 0, 0, 1, 1, 0, 0]>, <136, 12, 26, 14, 7, 0, 1, [0, 0, 0, 0, 1, 1, 0, 0]>, <137, 13, 27, 14, 7, 0, 1, [0, 0, 0, 0, 1, 1, 0, 0]>, <138, 14, 28, 14, 7, 0, 1, [0, 0, 0, 0, 1, 1, 0, 0]>, <139, 15, 29, 14, 7, 0, 1, [0, 0, 0, 0, 1, 1, 0, 0]>, <140, 0, 14, 14, 8, 0, 1, [0, 0, 0, 1, 1, 0, 0, 0]>, <141, 1, 15, 14, 8, 0, 1, [0, 0, 0, 1, 1, 0, 0, 0]>, <142, 2, 16, 14, 8, 0, 1, [0, 0, 0, 1, 1, 0, 0, 0]>, <143, 3, 17, 14, 8, 0, 1, [0, 0, 0, 1, 1, 0, 0, 0]>, <144, 4, 18, 14, 8, 0, 1, [0, 0, 0, 1, 1, 0, 0, 0]>, <145, 5, 19, 14, 8, 0, 1, [0, 0, 0, 1, 1, 0, 0, 0]>, <146, 6, 20, 14, 8, 0, 1, [0, 0, 0, 1, 1, 0, 0, 0]>, <147, 7, 21, 14, 8, 0, 1, [0, 0, 0, 1, 1, 0, 0, 0]>, <148, 8, 22, 14, 8, 0, 1, [0, 0, 0, 1, 1, 0, 0, 0]>, <149, 9, 23, 14, 8, 0, 1, [0, 0, 0, 1, 1, 0, 0, 0]>, <150, 10, 24, 14, 8, 0, 1, [0, 0, 0, 1, 1, 0, 0, 0]>, <151, 11, 25, 14, 8, 0, 1, [0, 0, 0, 1, 1, 0, 0, 0]>, <152, 12, 26, 14, 8, 0, 1, [0, 0, 0, 1, 1, 0, 0, 0]>, <153, 13, 27, 14, 8, 0, 1, [0, 0, 0, 1, 1, 0, 0, 0]>, <154, 14, 28, 14, 8, 0, 1, [0, 0, 0, 1, 1, 0, 0, 0]>, <155, 15, 29, 14, 8, 0, 1, [0, 0, 0, 1, 1, 0, 0, 0]>, <156, 2, 12, 10, 9, 0, 1, [0, 0, 0, 1, 1, 0, 0, 0]>, <157, 3, 13, 10, 9, 0, 1, [0, 0, 0, 1, 1, 0, 0, 0]>, <158, 4, 14, 10, 9, 0, 1, [0, 0, 0, 1, 1, 0, 0, 0]>, <159, 5, 15, 10, 9, 0, 1, [0, 0, 0, 1, 1, 0, 0, 0]>, <160, 10, 20, 10, 9, 0, 1, [0, 0, 0, 1, 1, 0, 0, 0]>, <161, 11, 21, 10, 9, 0, 1, [0, 0, 0, 1, 1, 0, 0, 0]>, <162, 12, 22, 10, 9, 0, 1, [0, 0, 0, 1, 1, 0, 0, 0]>, <163, 14, 24, 10, 9, 0, 1, [0, 0, 0, 1, 1, 0, 0, 0]>, <164, 15, 25, 10, 9, 0, 1, [0, 0, 0, 1, 1, 0, 0, 0]>, <165, 16, 26, 10, 9, 0, 1, [0, 0, 0, 1, 1, 0, 0, 0]>, <166, 17, 27, 10, 9, 0, 1, [0, 0, 0, 1, 1, 0, 0, 0]>, <167, 18, 28, 10, 9, 0, 1, [0, 0, 0, 1, 1, 0, 0, 0]>, <168, 19, 29, 10, 9, 0, 1, [0, 0, 0, 1, 1, 0, 0, 0]>, <169, 0, 12, 12, 10, 0, 1, [0, 0, 0, 0, 0, 0, 1, 1]>, <170, 1, 13, 12, 10, 0, 1, [0, 0, 0, 0, 0, 0, 1, 1]>, <171, 2, 14, 12, 10, 0, 1, [0, 0, 0, 0, 0, 0, 1, 1]>, <172, 3, 15, 12, 10, 0, 1, [0, 0, 0, 0, 0, 0, 1, 1]>, <173, 4, 16, 12, 10, 0, 1, [0, 0, 0, 0, 0, 0, 1, 1]>, <174, 5, 17, 12, 10, 0, 1, [0, 0, 0, 0, 0, 0, 1, 1]>, <175, 8, 20, 12, 10, 0, 1, [0, 0, 0, 0, 0, 0, 1, 1]>, <176, 9, 21, 12, 10, 0, 1, [0, 0, 0, 0, 0, 0, 1, 1]>, <177, 10, 22, 12, 10, 0, 1, [0, 0, 0, 0, 0, 0, 1, 1]>, <178, 11, 23, 12, 10, 0, 1, [0, 0, 0, 0, 0, 0, 1, 1]>, <179, 12, 24, 12, 10, 0, 1, [0, 0, 0, 0, 0, 0, 1, 1]>, <180, 13, 25, 12, 10, 0, 1, [0, 0, 0, 0, 0, 0, 1, 1]>, <181, 14, 26, 12, 10, 0, 1, [0, 0, 0, 0, 0, 0, 1, 1]>, <182, 15, 27, 12, 10, 0, 1, [0, 0, 0, 0, 0, 0, 1, 1]>, <183, 16, 28, 12, 10, 0, 1, [0, 0, 0, 0, 0, 0, 1, 1]>, <184, 17, 29, 12, 10, 0, 1, [0, 0, 0, 0, 0, 0, 1, 1]>, <185, 2, 12, 10, 11, 0, 0, [1, 0, 0, 0, 0, 0, 0, 1]>, <186, 3, 13, 10, 11, 0, 0, [1, 0, 0, 0, 0, 0, 0, 1]>, <187, 4, 14, 10, 11, 0, 0, [1, 0, 0, 0, 0, 0, 0, 1]>, <188, 5, 15, 10, 11, 0, 0, [1, 0, 0, 0, 0, 0, 0, 1]>, <189, 10, 20, 10, 11, 0, 0, [1, 0, 0, 0, 0, 0, 0, 1]>, <190, 11, 21, 10, 11, 0, 0, [1, 0, 0, 0, 0, 0, 0, 1]>, <191, 12, 22, 10, 11, 0, 0, [1, 0, 0, 0, 0, 0, 0, 1]>, <192, 14, 24, 10, 11, 0, 0, [1, 0, 0, 0, 0, 0, 0, 1]>, <193, 15, 25, 10, 11, 0, 0, [1, 0, 0, 0, 0, 0, 0, 1]>, <194, 16, 26, 10, 11, 0, 0, [1, 0, 0, 0, 0, 0, 0, 1]>, <195, 17, 27, 10, 11, 0, 0, [1, 0, 0, 0, 0, 0, 0, 1]>, <196, 18, 28, 10, 11, 0, 0, [1, 0, 0, 0, 0, 0, 0, 1]>, <197, 19, 29, 10, 11, 0, 0, [1, 0, 0, 0, 0, 0, 0, 1]>, <198, 0, 14, 14, 12, 0, 1, [0, 0, 1, 1, 0, 0, 0, 0]>, <199, 1, 15, 14, 12, 0, 1, [0, 0, 1, 1, 0, 0, 0, 0]>, <200, 2, 16, 14, 12, 0, 1, [0, 0, 1, 1, 0, 0, 0, 0]>, <201, 3, 17, 14, 12, 0, 1, [0, 0, 1, 1, 0, 0, 0, 0]>, <202, 4, 18, 14, 12, 0, 1, [0, 0, 1, 1, 0, 0, 0, 0]>, <203, 5, 19, 14, 12, 0, 1, [0, 0, 1, 1, 0, 0, 0, 0]>, <204, 6, 20, 14, 12, 0, 1, [0, 0, 1, 1, 0, 0, 0, 0]>, <205, 7, 21, 14, 12, 0, 1, [0, 0, 1, 1, 0, 0, 0, 0]>, <206, 8, 22, 14, 12, 0, 1, [0, 0, 1, 1, 0, 0, 0, 0]>, <207, 9, 23, 14, 12, 0, 1, [0, 0, 1, 1, 0, 0, 0, 0]>, <208, 10, 24, 14, 12, 0, 1, [0, 0, 1, 1, 0, 0, 0, 0]>, <209, 11, 25, 14, 12, 0, 1, [0, 0, 1, 1, 0, 0, 0, 0]>, <210, 12, 26, 14, 12, 0, 1, [0, 0, 1, 1, 0, 0, 0, 0]>, <211, 13, 27, 14, 12, 0, 1, [0, 0, 1, 1, 0, 0, 0, 0]>, <212, 14, 28, 14, 12, 0, 1, [0, 0, 1, 1, 0, 0, 0, 0]>, <213, 15, 29, 14, 12, 0, 1, [0, 0, 1, 1, 0, 0, 0, 0]>, <214, 0, 13, 13, 13, 0, 0, [0, 1, 1, 0, 0, 0, 0, 0]>, <215, 1, 14, 13, 13, 0, 0, [0, 1, 1, 0, 0, 0, 0, 0]>, <216, 2, 15, 13, 13, 0, 0, [0, 1, 1, 0, 0, 0, 0, 0]>, <217, 3, 16, 13, 13, 0, 0, [0, 1, 1, 0, 0, 0, 0, 0]>, <218, 4, 17, 13, 13, 0, 0, [0, 1, 1, 0, 0, 0, 0, 0]>, <219, 5, 18, 13, 13, 0, 0, [0, 1, 1, 0, 0, 0, 0, 0]>, <220, 7, 20, 13, 13, 0, 0, [0, 1, 1, 0, 0, 0, 0, 0]>, <221, 8, 21, 13, 13, 0, 0, [0, 1, 1, 0, 0, 0, 0, 0]>, <222, 9, 22, 13, 13, 0, 0, [0, 1, 1, 0, 0, 0, 0, 0]>, <223, 10, 23, 13, 13, 0, 0, [0, 1, 1, 0, 0, 0, 0, 0]>, <224, 11, 24, 13, 13, 0, 0, [0, 1, 1, 0, 0, 0, 0, 0]>, <225, 12, 25, 13, 13, 0, 0, [0, 1, 1, 0, 0, 0, 0, 0]>, <226, 13, 26, 13, 13, 0, 0, [0, 1, 1, 0, 0, 0, 0, 0]>, <227, 14, 27, 13, 13, 0, 0, [0, 1, 1, 0, 0, 0, 0, 0]>, <228, 15, 28, 13, 13, 0, 0, [0, 1, 1, 0, 0, 0, 0, 0]>, <229, 16, 29, 13, 13, 0, 0, [0, 1, 1, 0, 0, 0, 0, 0]>, <230, 0, 12, 12, 14, 0, 0, [0, 0, 0, 0, 1, 1, 0, 0]>, <231, 1, 13, 12, 14, 0, 0, [0, 0, 0, 0, 1, 1, 0, 0]>, <232, 2, 14, 12, 14, 0, 0, [0, 0, 0, 0, 1, 1, 0, 0]>, <233, 3, 15, 12, 14, 0, 0, [0, 0, 0, 0, 1, 1, 0, 0]>, <234, 4, 16, 12, 14, 0, 0, [0, 0, 0, 0, 1, 1, 0, 0]>, <235, 5, 17, 12, 14, 0, 0, [0, 0, 0, 0, 1, 1, 0, 0]>, <236, 8, 20, 12, 14, 0, 0, [0, 0, 0, 0, 1, 1, 0, 0]>, <237, 9, 21, 12, 14, 0, 0, [0, 0, 0, 0, 1, 1, 0, 0]>, <238, 10, 22, 12, 14, 0, 0, [0, 0, 0, 0, 1, 1, 0, 0]>, <239, 11, 23, 12, 14, 0, 0, [0, 0, 0, 0, 1, 1, 0, 0]>, <240, 12, 24, 12, 14, 0, 0, [0, 0, 0, 0, 1, 1, 0, 0]>, <241, 13, 25, 12, 14, 0, 0, [0, 0, 0, 0, 1, 1, 0, 0]>, <242, 14, 26, 12, 14, 0, 0, [0, 0, 0, 0, 1, 1, 0, 0]>, <243, 15, 27, 12, 14, 0, 0, [0, 0, 0, 0, 1, 1, 0, 0]>, <244, 16, 28, 12, 14, 0, 0, [0, 0, 0, 0, 1, 1, 0, 0]>, <245, 17, 29, 12, 14, 0, 0, [0, 0, 0, 0, 1, 1, 0, 0]>, <246, 0, 15, 15, 15, 0, 0, [0, 0, 0, 1, 1, 0, 0, 0]>, <247, 1, 16, 15, 15, 0, 0, [0, 0, 0, 1, 1, 0, 0, 0]>, <248, 2, 17, 15, 15, 0, 0, [0, 0, 0, 1, 1, 0, 0, 0]>, <249, 3, 18, 15, 15, 0, 0, [0, 0, 0, 1, 1, 0, 0, 0]>, <250, 4, 19, 15, 15, 0, 0, [0, 0, 0, 1, 1, 0, 0, 0]>, <251, 5, 20, 15, 15, 0, 0, [0, 0, 0, 1, 1, 0, 0, 0]>, <252, 6, 21, 15, 15, 0, 0, [0, 0, 0, 1, 1, 0, 0, 0]>, <253, 7, 22, 15, 15, 0, 0, [0, 0, 0, 1, 1, 0, 0, 0]>, <254, 8, 23, 15, 15, 0, 0, [0, 0, 0, 1, 1, 0, 0, 0]>, <255, 9, 24, 15, 15, 0, 0, [0, 0, 0, 1, 1, 0, 0, 0]>, <256, 10, 25, 15, 15, 0, 0, [0, 0, 0, 1, 1, 0, 0, 0]>, <257, 11, 26, 15, 15, 0, 0, [0, 0, 0, 1, 1, 0, 0, 0]>, <258, 12, 27, 15, 15, 0, 0, [0, 0, 0, 1, 1, 0, 0, 0]>, <259, 13, 28, 15, 15, 0, 0, [0, 0, 0, 1, 1, 0, 0, 0]>, <260, 14, 29, 15, 15, 0, 0, [0, 0, 0, 1, 1, 0, 0, 0]>, <261, 0, 12, 12, 16, 1, 0, [0, 0, 0, 0, 0, 0, 1, 1]>, <262, 1, 13, 12, 16, 1, 0, [0, 0, 0, 0, 0, 0, 1, 1]>, <263, 2, 14, 12, 16, 1, 0, [0, 0, 0, 0, 0, 0, 1, 1]>, <264, 3, 15, 12, 16, 1, 0, [0, 0, 0, 0, 0, 0, 1, 1]>, <265, 4, 16, 12, 16, 1, 0, [0, 0, 0, 0, 0, 0, 1, 1]>, <266, 5, 17, 12, 16, 1, 0, [0, 0, 0, 0, 0, 0, 1, 1]>, <267, 8, 20, 12, 16, 1, 0, [0, 0, 0, 0, 0, 0, 1, 1]>, <268, 9, 21, 12, 16, 1, 0, [0, 0, 0, 0, 0, 0, 1, 1]>, <269, 10, 22, 12, 16, 1, 0, [0, 0, 0, 0, 0, 0, 1, 1]>, <270, 11, 23, 12, 16, 1, 0, [0, 0, 0, 0, 0, 0, 1, 1]>, <271, 12, 24, 12, 16, 1, 0, [0, 0, 0, 0, 0, 0, 1, 1]>, <272, 13, 25, 12, 16, 1, 0, [0, 0, 0, 0, 0, 0, 1, 1]>, <273, 14, 26, 12, 16, 1, 0, [0, 0, 0, 0, 0, 0, 1, 1]>, <274, 15, 27, 12, 16, 1, 0, [0, 0, 0, 0, 0, 0, 1, 1]>, <275, 16, 28, 12, 16, 1, 0, [0, 0, 0, 0, 0, 0, 1, 1]>, <276, 17, 29, 12, 16, 1, 0, [0, 0, 0, 0, 0, 0, 1, 1]>, <277, 1, 12, 11, 17, 0, 0, [0, 0, 0, 0, 1, 1, 0, 0]>, <278, 2, 13, 11, 17, 0, 0, [0, 0, 0, 0, 1, 1, 0, 0]>, <279, 3, 14, 11, 17, 0, 0, [0, 0, 0, 0, 1, 1, 0, 0]>, <280, 4, 15, 11, 17, 0, 0, [0, 0, 0, 0, 1, 1, 0, 0]>, <281, 5, 16, 11, 17, 0, 0, [0, 0, 0, 0, 1, 1, 0, 0]>, <282, 9, 20, 11, 17, 0, 0, [0, 0, 0, 0, 1, 1, 0, 0]>, <283, 10, 21, 11, 17, 0, 0, [0, 0, 0, 0, 1, 1, 0, 0]>, <284, 11, 22, 11, 17, 0, 0, [0, 0, 0, 0, 1, 1, 0, 0]>, <285, 12, 23, 11, 17, 0, 0, [0, 0, 0, 0, 1, 1, 0, 0]>, <286, 13, 24, 11, 17, 0, 0, [0, 0, 0, 0, 1, 1, 0, 0]>, <287, 14, 25, 11, 17, 0, 0, [0, 0, 0, 0, 1, 1, 0, 0]>, <288, 15, 26, 11, 17, 0, 0, [0, 0, 0, 0, 1, 1, 0, 0]>, <289, 16, 27, 11, 17, 0, 0, [0, 0, 0, 0, 1, 1, 0, 0]>, <290, 17, 28, 11, 17, 0, 0, [0, 0, 0, 0, 1, 1, 0, 0]>, <291, 18, 29, 11, 17, 0, 0, [0, 0, 0, 0, 1, 1, 0, 0]>, <292, 0, 12, 12, 18, 0, 0, [0, 0, 0, 0, 0, 1, 1, 0]>, <293, 1, 13, 12, 18, 0, 0, [0, 0, 0, 0, 0, 1, 1, 0]>, <294, 2, 14, 12, 18, 0, 0, [0, 0, 0, 0, 0, 1, 1, 0]>, <295, 3, 15, 12, 18, 0, 0, [0, 0, 0, 0, 0, 1, 1, 0]>, <296, 4, 16, 12, 18, 0, 0, [0, 0, 0, 0, 0, 1, 1, 0]>, <297, 5, 17, 12, 18, 0, 0, [0, 0, 0, 0, 0, 1, 1, 0]>, <298, 8, 20, 12, 18, 0, 0, [0, 0, 0, 0, 0, 1, 1, 0]>, <299, 9, 21, 12, 18, 0, 0, [0, 0, 0, 0, 0, 1, 1, 0]>, <300, 10, 22, 12, 18, 0, 0, [0, 0, 0, 0, 0, 1, 1, 0]>, <301, 11, 23, 12, 18, 0, 0, [0, 0, 0, 0, 0, 1, 1, 0]>, <302, 12, 24, 12, 18, 0, 0, [0, 0, 0, 0, 0, 1, 1, 0]>, <303, 13, 25, 12, 18, 0, 0, [0, 0, 0, 0, 0, 1, 1, 0]>, <304, 14, 26, 12, 18, 0, 0, [0, 0, 0, 0, 0, 1, 1, 0]>, <305, 15, 27, 12, 18, 0, 0, [0, 0, 0, 0, 0, 1, 1, 0]>, <306, 16, 28, 12, 18, 0, 0, [0, 0, 0, 0, 0, 1, 1, 0]>, <307, 17, 29, 12, 18, 0, 0, [0, 0, 0, 0, 0, 1, 1, 0]>, <308, 0, 14, 14, 19, 1, 0, [0, 1, 1, 0, 0, 0, 0, 0]>, <309, 1, 15, 14, 19, 1, 0, [0, 1, 1, 0, 0, 0, 0, 0]>, <310, 2, 16, 14, 19, 1, 0, [0, 1, 1, 0, 0, 0, 0, 0]>, <311, 3, 17, 14, 19, 1, 0, [0, 1, 1, 0, 0, 0, 0, 0]>, <312, 4, 18, 14, 19, 1, 0, [0, 1, 1, 0, 0, 0, 0, 0]>, <313, 5, 19, 14, 19, 1, 0, [0, 1, 1, 0, 0, 0, 0, 0]>, <314, 6, 20, 14, 19, 1, 0, [0, 1, 1, 0, 0, 0, 0, 0]>, <315, 7, 21, 14, 19, 1, 0, [0, 1, 1, 0, 0, 0, 0, 0]>, <316, 8, 22, 14, 19, 1, 0, [0, 1, 1, 0, 0, 0, 0, 0]>, <317, 9, 23, 14, 19, 1, 0, [0, 1, 1, 0, 0, 0, 0, 0]>, <318, 10, 24, 14, 19, 1, 0, [0, 1, 1, 0, 0, 0, 0, 0]>, <319, 11, 25, 14, 19, 1, 0, [0, 1, 1, 0, 0, 0, 0, 0]>, <320, 12, 26, 14, 19, 1, 0, [0, 1, 1, 0, 0, 0, 0, 0]>, <321, 13, 27, 14, 19, 1, 0, [0, 1, 1, 0, 0, 0, 0, 0]>, <322, 14, 28, 14, 19, 1, 0, [0, 1, 1, 0, 0, 0, 0, 0]>, <323, 15, 29, 14, 19, 1, 0, [0, 1, 1, 0, 0, 0, 0, 0]>, <324, 0, 13, 13, 20, 0, 0, [0, 0, 0, 0, 1, 1, 0, 0]>, <325, 1, 14, 13, 20, 0, 0, [0, 0, 0, 0, 1, 1, 0, 0]>, <326, 2, 15, 13, 20, 0, 0, [0, 0, 0, 0, 1, 1, 0, 0]>, <327, 3, 16, 13, 20, 0, 0, [0, 0, 0, 0, 1, 1, 0, 0]>, <328, 4, 17, 13, 20, 0, 0, [0, 0, 0, 0, 1, 1, 0, 0]>, <329, 5, 18, 13, 20, 0, 0, [0, 0, 0, 0, 1, 1, 0, 0]>, <330, 7, 20, 13, 20, 0, 0, [0, 0, 0, 0, 1, 1, 0, 0]>, <331, 8, 21, 13, 20, 0, 0, [0, 0, 0, 0, 1, 1, 0, 0]>, <332, 9, 22, 13, 20, 0, 0, [0, 0, 0, 0, 1, 1, 0, 0]>, <333, 10, 23, 13, 20, 0, 0, [0, 0, 0, 0, 1, 1, 0, 0]>, <334, 11, 24, 13, 20, 0, 0, [0, 0, 0, 0, 1, 1, 0, 0]>, <335, 12, 25, 13, 20, 0, 0, [0, 0, 0, 0, 1, 1, 0, 0]>, <336, 13, 26, 13, 20, 0, 0, [0, 0, 0, 0, 1, 1, 0, 0]>, <337, 14, 27, 13, 20, 0, 0, [0, 0, 0, 0, 1, 1, 0, 0]>, <338, 15, 28, 13, 20, 0, 0, [0, 0, 0, 0, 1, 1, 0, 0]>, <339, 16, 29, 13, 20, 0, 0, [0, 0, 0, 0, 1, 1, 0, 0]>, <340, 0, 15, 15, 21, 0, 0, [1, 0, 0, 0, 0, 0, 0, 1]>, <341, 1, 16, 15, 21, 0, 0, [1, 0, 0, 0, 0, 0, 0, 1]>, <342, 2, 17, 15, 21, 0, 0, [1, 0, 0, 0, 0, 0, 0, 1]>, <343, 3, 18, 15, 21, 0, 0, [1, 0, 0, 0, 0, 0, 0, 1]>, <344, 4, 19, 15, 21, 0, 0, [1, 0, 0, 0, 0, 0, 0, 1]>, <345, 5, 20, 15, 21, 0, 0, [1, 0, 0, 0, 0, 0, 0, 1]>, <346, 6, 21, 15, 21, 0, 0, [1, 0, 0, 0, 0, 0, 0, 1]>, <347, 7, 22, 15, 21, 0, 0, [1, 0, 0, 0, 0, 0, 0, 1]>, <348, 8, 23, 15, 21, 0, 0, [1, 0, 0, 0, 0, 0, 0, 1]>, <349, 9, 24, 15, 21, 0, 0, [1, 0, 0, 0, 0, 0, 0, 1]>, <350, 10, 25, 15, 21, 0, 0, [1, 0, 0, 0, 0, 0, 0, 1]>, <351, 11, 26, 15, 21, 0, 0, [1, 0, 0, 0, 0, 0, 0, 1]>, <352, 12, 27, 15, 21, 0, 0, [1, 0, 0, 0, 0, 0, 0, 1]>, <353, 13, 28, 15, 21, 0, 0, [1, 0, 0, 0, 0, 0, 0, 1]>, <354, 14, 29, 15, 21, 0, 0, [1, 0, 0, 0, 0, 0, 0, 1]>};
